NAME : a280
TYPE : OP
DIMENSION : 280
COST_LIMIT : 1290
ROUTE_NODES : 134
ROUTE_SCORE : 8304
ROUTE_COST : 1290
NODE_SEQUENCE_SECTION
1
2
242
243
244
245
240
239
238
237
232
233
228
227
226
225
218
215
216
213
211
210
209
252
255
254
257
258
259
260
261
262
263
264
265
266
267
268
269
135
136
137
138
140
141
142
143
145
199
198
201
196
194
193
186
187
185
184
183
182
181
176
177
159
160
175
161
162
163
164
165
171
172
106
105
104
108
110
111
113
87
84
83
82
89
81
79
77
75
74
73
72
71
67
66
65
86
116
115
117
118
61
60
43
42
41
40
39
38
35
34
33
30
125
126
127
128
21
20
132
133
18
17
16
271
272
273
274
275
276
277
4
279
3
-1
DEPOT_SECTION
1
-1
EOF
